; benchmark generated from python API
(set-info :status unknown)
(declare-fun S_2 () Real)
(declare-fun L_2 () Real)
(declare-fun A_2 () Real)
(declare-fun L_1 () Real)
(declare-fun S_1 () Real)
(declare-fun A_1 () Real)
(declare-fun S_4 () Real)
(declare-fun A_4 () Real)
(declare-fun S_3 () Real)
(declare-fun A_3 () Real)
(declare-fun L_0 () Real)
(declare-fun S_0 () Real)
(declare-fun A_0 () Real)
(assert
 (let (($x34 (>= L_0 0.0)))
 (let (($x34817 (<= (+ (* (- 1.0) A_3) (* (- 1.0) A_2) (* 2.0 L_2) S_4 S_1) (- 5.0))))
 (let (($x880 (= (+ L_2 (* (- 1.0) L_1)) 0.0)))
 (let ((?x449 (* (- 1.0) L_1)))
 (let ((?x999 (* 2.0 L_2)))
 (let ((?x350 (* (- 1.0) A_2)))
 (let ((?x346 (* (- 1.0) A_3)))
 (let ((?x1516 (+ ?x346 ?x350 A_1 ?x999 S_4 ?x449)))
 (let (($x34465 (<= (+ (* (- 2.0) A_3) ?x350 (* 3.0 L_2) (* 2.0 S_4) S_0) (- 5.0))))
 (let (($x32774 (<= (+ (* (- 1.0) A_4) A_3 (* (- 2.0) A_2) S_4 S_1 ?x999) (- 5.0))))
 (let (($x39796 (or $x880 (<= (+ ?x350 L_2 (* (/ 3.0 2.0) S_1) (* (- (/ 1.0 2.0)) S_0)) (- 5.0)))))
 (let ((?x1248 (* 3.0 L_2)))
 (let ((?x4646 (* 2.0 S_4)))
 (let ((?x1071 (* (- 3.0) A_2)))
 (let ((?x3466 (* 2.0 A_3)))
 (let ((?x3876 (* (- 2.0) A_4)))
 (let ((?x11971 (+ ?x3876 ?x3466 ?x1071 ?x4646 S_0 ?x1248)))
 (let (($x32758 (<= (+ (* (- 1.0) A_4) A_3 (* (- 2.0) A_2) A_1 ?x449 S_4 ?x999) (- 5.0))))
 (let ((?x373 (* (- 1.0) S_3)))
 (let ((?x354 (* (- 1.0) A_1)))
 (let ((?x342 (* (- 1.0) A_4)))
 (let (($x882 (= (+ L_1 (* (- 1.0) L_0)) 0.0)))
 (let ((?x5604 (* (/ 1.0 2.0) S_4)))
 (let ((?x3751 (* (/ 1.0 2.0) A_3)))
 (let ((?x5456 (* (- (/ 1.0 2.0)) A_4)))
 (let (($x33700 (<= (+ ?x5456 ?x3751 (* (- (/ 3.0 2.0)) A_1) ?x5604 S_0 (* (/ 3.0 2.0) L_1)) (- 5.0))))
 (let (($x55775 (or $x882 (<= (+ ?x342 A_3 ?x350 ?x354 L_2 S_4 S_0 L_1) 0.0))))
 (let (($x34827 (<= (+ (* (- (/ 1.0 2.0)) A_2) ?x354 (* (/ 1.0 2.0) L_2) ?x5604 S_0 L_1) (- 5.0))))
 (let (($x871 (<= (+ A_1 (* (- 1.0) S_2) ?x449) 0.0)))
 (let (($x55261 (or $x871 $x880 (<= (+ ?x342 A_3 ?x350 S_4 (* (- 1.0) S_2) S_0 L_2) 0.0))))
 (let (($x36721 (or $x880 (<= (+ ?x3876 ?x3466 (* (- 2.0) A_2) ?x4646 ?x373 S_0 ?x999) 0.0) (<= (+ ?x342 A_3 ?x350 A_1 ?x449 S_4 ?x373 L_2) 0.0))))
 (let ((?x362 (* (- 1.0) S_4)))
 (let ((?x436 (* (- 1.0) L_2)))
 (let ((?x876 (* (- 1.0) A_0)))
 (let (($x859 (<= (+ A_3 ?x436 ?x362) 0.0)))
 (let (($x28789 (or $x859 (<= (+ ?x876 (* (- (/ 1.0 2.0)) S_4) (* (/ 3.0 2.0) S_1) L_0) 0.0) (<= (+ A_2 ?x876 ?x436 ?x362 S_1 L_0) 0.0))))
 (let (($x865 (<= (+ A_2 ?x436 ?x373) 0.0)))
 (let (($x29373 (or $x865 (<= (+ ?x346 L_2 S_4 (* (- (/ 1.0 2.0)) S_3) (* (/ 1.0 2.0) S_0)) 0.0) (<= (+ ?x346 A_1 L_2 S_4 ?x373 ?x449) 0.0))))
 (let (($x27951 (or $x859 (<= (+ (* (- 2.0) S_4) (* 3.0 S_2) (* (- 1.0) S_1)) 0.0))))
 (let (($x55692 (or $x882 (<= (+ ?x354 (* (/ 1.0 4.0) S_4) (* (/ 3.0 4.0) S_0) L_1) (- 5.0)))))
 (let (($x33312 (<= (+ ?x350 (* (/ 2.0 3.0) A_1) (* (- (/ 2.0 3.0)) L_1) (* (/ 1.0 3.0) S_4) L_2) (- 5.0))))
 (let (($x55514 (or $x880 (<= (+ ?x350 A_1 ?x449 L_2) (- 10.0)) (<= (+ ?x350 S_0 L_2) (- 15.0)))))
 (let (($x18263 (<= (+ ?x342 A_3 ?x354 S_4 (* (- 2.0) S_3) (* 2.0 S_1) L_1) 0.0)))
 (let (($x55767 (or $x882 (<= (+ ?x354 (* (/ 1.0 3.0) S_3) (* (/ 2.0 3.0) S_0) L_1) (- 5.0)))))
 (let (($x55341 (or $x880 (<= (+ ?x350 (* (/ 1.0 3.0) S_4) (* (/ 2.0 3.0) S_1) L_2) (- 5.0)))))
 (let (($x55951 (or $x865 (not (<= (- 5.0) (+ ?x354 S_0 L_1))) (<= (+ A_1 ?x449 ?x373) (- 5.0)))))
 (let (($x11435 (<= (+ (* (/ 2.0 3.0) A_1) (* (- (/ 2.0 3.0)) L_1) (* (/ 1.0 3.0) S_4) ?x373) 0.0)))
 (let ((?x34076 (+ ?x354 S_0 L_1)))
 (let (($x34399 (<= (- 5.0) ?x34076)))
 (let ((?x1009 (* 2.0 L_1)))
 (let ((?x910 (* (- 2.0) L_2)))
 (let ((?x1048 (* (- 2.0) A_1)))
 (let ((?x1045 (* 2.0 A_2)))
 (let (($x21611 (or $x859 (<= (+ (* (- 3.0) S_4) (* 4.0 S_2) (* (- 1.0) S_0)) 0.0))))
 (let (($x21544 (or $x859 (<= (+ ?x362 (* 2.0 S_1) (* (- 1.0) S_0)) 0.0) (<= (+ ?x1045 ?x910 (* (- 2.0) S_4) S_1 (* (- 1.0) S_0)) 0.0))))
 (let (($x20526 (or $x859 (<= (+ ?x876 (* (- 2.0) S_4) (* 3.0 S_2) L_0) 0.0))))
 (let (($x32991 (<= (+ A_2 ?x436 ?x362) (- 5.0))))
 (let (($x7878 (<= (+ (* (/ 1.0 2.0) A_1) (* (- (/ 1.0 2.0)) S_4) (* (- (/ 1.0 2.0)) L_1)) (- 5.0))))
 (let (($x54587 (or $x859 $x7878 $x32991 (not (<= 0.0 (+ ?x354 (* (/ 1.0 3.0) S_4) (* (/ 2.0 3.0) S_0) L_1))))))
 (let (($x33143 (<= 0.0 (+ ?x354 (* (/ 1.0 3.0) S_4) (* (/ 2.0 3.0) S_0) L_1))))
 (let (($x33661 (or $x859 (<= (+ (* (- (/ 1.0 3.0)) S_4) (* (/ 1.0 3.0) S_0)) (- 5.0)) $x32991 $x33143)))
 (let (($x55922 (or $x871 (<= (+ ?x350 L_2 S_4 (* (- 2.0) S_2) (* 2.0 S_0)) 0.0))))
 (let (($x11682 (or $x871 (<= (+ (* (/ 1.0 3.0) S_3) (* (- 1.0) S_2) (* (/ 2.0 3.0) S_0)) 0.0))))
 (let (($x7676 (<= (+ (* (- (/ 1.0 2.0)) A_1) (* (- (/ 1.0 2.0)) S_4) (* (/ 1.0 2.0) L_1) S_2) 0.0)))
 (let ((?x3788 (* (/ 1.0 2.0) L_1)))
 (let ((?x384 (* (- 1.0) S_2)))
 (let ((?x3711 (* (- (/ 1.0 2.0)) A_1)))
 (let (($x31824 (<= (+ ?x350 (* (/ 1.0 2.0) A_1) (* (- (/ 1.0 2.0)) L_1) (* (/ 1.0 2.0) S_3) L_2) (- 5.0))))
 (let (($x55420 (or $x880 $x31824 (<= (+ ?x350 (* (/ 2.0 3.0) S_3) (* (/ 1.0 3.0) S_0) L_2) (- 5.0)))))
 (let (($x54920 (or $x880 (<= (+ ?x350 L_2 (* (/ 1.0 2.0) S_3) (* (/ 1.0 2.0) S_1)) (- 5.0)))))
 (let ((?x2212 (* 5.0 L_2)))
 (let ((?x2209 (* (- 5.0) L_1)))
 (let ((?x927 (* (- 1.0) S_0)))
 (let ((?x2151 (* 5.0 A_1)))
 (let ((?x2169 (* (- 5.0) A_2)))
 (let (($x325 (<= 0.0 (+ ?x436 L_1))))
 (let ((?x1026 (* (- 2.0) L_1)))
 (let ((?x1031 (* 2.0 A_1)))
 (let ((?x1004 (* (- 2.0) A_2)))
 (let ((?x1327 (* 4.0 L_2)))
 (let ((?x1326 (* (- 4.0) L_1)))
 (let ((?x1325 (* 4.0 A_1)))
 (let ((?x1324 (* (- 4.0) A_2)))
 (let (($x2187 (<= (+ ?x1071 (* 3.0 A_1) S_4 ?x384 (* (- 3.0) L_1) ?x1248) 0.0)))
 (let (($x54543 (or $x325 (<= (+ ?x1324 ?x1325 S_4 (* (- 1.0) S_1) ?x1326 ?x1327) 0.0))))
 (let ((?x1252 (* (- 3.0) L_2)))
 (let ((?x1293 (* 3.0 L_1)))
 (let ((?x1262 (* (- 3.0) A_1)))
 (let ((?x1289 (* 3.0 A_2)))
 (let ((?x1073 (* (- 3.0) L_1)))
 (let ((?x395 (* (- 1.0) S_1)))
 (let ((?x1072 (* 3.0 A_1)))
 (let (($x96 (>= S_1 S_0)))
 (let (($x99 (>= S_2 S_1)))
 (let (($x102 (>= S_3 S_2)))
 (let (($x105 (>= S_4 S_3)))
 (let (($x107 (>= A_1 A_0)))
 (let (($x108 (>= A_2 A_1)))
 (let (($x109 (>= A_3 A_2)))
 (let (($x110 (>= A_4 A_3)))
 (and $x110 $x109 $x108 $x107 $x105 $x102 $x99 $x96 (or (not (<= 0.0 (+ L_0 ?x449))) $x882) (or (<= (+ ?x350 A_1 L_2 ?x449) (- 5.0)) $x325) (or (<= (+ ?x354 S_1 L_1) (- 5.0)) $x882) (or $x882 (<= (+ A_2 ?x354 ?x436 ?x373 S_1 L_1) 0.0)) (or $x325 (<= (+ ?x350 S_2 L_2) (- 5.0))) (or $x859 $x882 (<= (+ ?x1045 ?x1048 ?x910 ?x362 S_1 ?x1009) 0.0)) (or $x325 (<= (+ ?x1004 ?x1031 ?x999 S_1 ?x927 ?x1026) 0.0)) (or $x882 (<= (+ A_2 ?x1048 ?x436 S_0 ?x1009) (- 5.0))) (or $x325 (<= (+ ?x1004 ?x1031 ?x876 ?x999 S_2 L_0 ?x1026) 0.0)) (or $x325 (<= (+ ?x1071 ?x1072 ?x1248 S_2 ?x927 ?x1073) 0.0)) (or $x325 (<= (+ ?x350 A_1 ?x876 L_2 S_1 L_0 ?x449) 0.0)) (or $x325 (<= (+ ?x1004 ?x1031 ?x999 S_2 ?x395 ?x1026) 0.0)) (or $x859 $x882 (<= (+ A_2 ?x354 ?x362 S_2 L_1 ?x436) 0.0)) (or (<= (+ ?x1004 A_1 S_3 ?x449 ?x999) (- 5.0)) $x325) (or $x325 (<= (+ ?x1071 ?x1072 ?x876 S_3 L_0 ?x1073 ?x1248) 0.0)) (or $x325 (<= (+ ?x1071 ?x1072 S_3 ?x395 ?x1073 ?x1248) 0.0)) (or $x859 $x882 (<= (+ ?x1289 ?x1262 ?x362 S_0 ?x1293 ?x1252) 0.0)) (or $x325 (<= (+ ?x1324 ?x1325 S_3 ?x927 ?x1326 ?x1327) 0.0)) (or $x325 (<= (+ ?x342 A_3 ?x1004 A_1 S_4 ?x449 ?x999) 0.0)) $x54543 (or $x325 (<= (+ ?x1004 ?x1031 S_3 ?x384 ?x1026 ?x999) 0.0)) (or $x325 $x2187) (or $x325 (<= ?x1516 0.0)) (or $x325 (<= (+ ?x1324 ?x1325 ?x876 S_4 L_0 ?x1326 ?x1327) 0.0)) (or $x325 (<= (+ ?x1071 ?x1031 S_4 ?x1026 ?x1248) (- 5.0))) (or $x325 (<= (+ ?x1004 ?x1031 S_4 ?x373 ?x1026 ?x999) 0.0)) (or $x325 (<= (+ ?x2169 ?x2151 S_4 ?x927 ?x2209 ?x2212) 0.0)) (or $x871 (<= (+ ?x384 S_0) (- 5.0))) (or (not $x325) $x880) (or $x882 (<= (+ A_2 ?x354 ?x436 ?x384 S_0 L_1) 0.0)) $x54920 $x55420 (or $x871 (<= (+ S_4 (* (- 4.0) S_2) (* 3.0 S_0)) 0.0)) (or $x865 (<= (+ ?x373 S_1) (- 5.0))) (or $x865 (<= (+ S_4 (* (- 3.0) S_3) (* 2.0 S_1)) 0.0)) (or $x882 (<= (+ ?x5456 ?x3751 ?x3711 ?x5604 ?x384 S_0 ?x3788) 0.0)) (or $x859 $x7676) $x11682 (or $x871 (<= (+ ?x350 L_2 S_3 ?x384 S_0) 0.0)) $x55922 (or $x871 $x880 (not (<= 0.0 ?x11971))) (or $x859 (<= (+ ?x362 S_2) (- 5.0))) (or $x865 (<= (+ ?x346 L_2 S_4 ?x373 S_1) 0.0)) (or $x865 (<= (+ ?x876 ?x373 (* 2.0 S_1) L_0) 0.0)) $x33661 $x54587 (or $x859 (<= (+ (* (- (/ 1.0 2.0)) S_4) (* (/ 1.0 2.0) S_1)) (- 5.0)) $x32991) (or $x882 (<= (+ ?x1048 S_2 S_0 ?x1009) (- 10.0))) $x20526 (or $x859 $x882 (<= (+ ?x354 ?x362 (* 2.0 S_2) L_1) (- 5.0))) $x21544 $x21611 (or $x865 (<= (+ ?x373 (* (/ 3.0 2.0) S_1) (* (- (/ 1.0 2.0)) S_0)) 0.0)) (or $x882 (<= ?x34076 (- 10.0))) (or $x882 (<= (+ ?x346 ?x354 L_2 S_4 S_0 L_1) (- 5.0))) (or $x882 (<= (+ ?x1045 ?x1048 ?x910 ?x373 S_0 ?x1009) 0.0)) (or $x865 (<= (+ (* (- (/ 1.0 2.0)) S_3) (* (/ 1.0 2.0) S_0)) (- 5.0)) $x34399) (or $x865 (<= (+ ?x5604 ?x373 (* (/ 1.0 2.0) S_0)) 0.0) $x11435) (or $x880 (<= (+ ?x350 S_1 L_2) (- 10.0))) $x55951 (or $x871 (<= (+ ?x346 L_2 S_4 ?x384 S_0) 0.0)) $x55341 $x55767 (or $x882 (<= (+ ?x350 ?x354 L_2 S_3 S_0 L_1) (- 5.0))) (or $x865 $x882 $x18263) (or $x880 (<= (+ ?x350 ?x876 L_2 (* 2.0 S_1) L_0) (- 5.0))) $x55514 (or $x880 (<= (+ ?x350 ?x5604 (* (/ 1.0 2.0) S_0) L_2) (- 5.0)) $x33312) $x55692 $x27951 $x29373 $x28789 $x36721 $x55261 (or $x882 $x34827) $x55775 (or $x882 $x33700) (or $x880 (<= (+ ?x342 A_3 ?x350 S_4 ?x373 S_1 L_2) 0.0)) (or $x882 (<= (+ ?x342 A_3 ?x354 S_4 ?x373 S_0 L_1) 0.0)) (or $x880 $x32758 (<= ?x11971 (- 5.0))) $x39796 (or $x880 $x32774) (or $x880 $x34465 (<= ?x1516 (- 5.0))) (or $x880 $x34817) $x34 (<= (+ ?x876 S_0 L_0) 0.0) (<= (+ ?x346 L_2 S_3) 0.0) (<= (+ ?x342 L_2 S_4) 0.0) (<= (+ ?x354 S_1 L_1) 0.0) (<= (+ ?x350 L_2 S_2) 0.0)))))))))))))))))))))))))))))))))))))))))))))))))))))))))))))))))))))))))))))))))))))))))))))))))))))))
(check-sat)
